 vasp.5.4.1 05Feb16 (build Mar 25 2016 06:51:17) complex

 executed on           IFC91_ompi date 2016.12.11  10:57:46

 INCAR:
 POTCAR:    PAW_PBE Pb_d 06Sep2000
 POTCAR:    PAW_PBE S 06Sep2000

 POTCAR:    PAW_PBE Pb_d 06Sep2000
   VRHFIN =Pb:

   TITEL  = PAW_PBE Pb_d 06Sep2000
   POMASS =  207.200; ZVAL   =   14.000    mass and valenz
   ENMAX  =  237.835; ENMIN  =  178.376 eV

 POTCAR:    PAW_PBE S 06Sep2000
   VRHFIN =S : s2p4

   TITEL  = PAW_PBE S 06Sep2000
   POMASS =   32.066; ZVAL   =    6.000    mass and valenz
   ENMAX  =  258.689; ENMIN  =  194.016 eV

  PAW_PBE Pb_d 06Sep2000                :
  PAW_PBE S 06Sep2000                   :

 POSCAR: PbS_rc_conven
  positions in direct lattice
 exchange correlation table for  LEXCH =       14
   RHO(1)=    0.500       N(1)  =     2000
   RHO(2)=  100.500       N(2)  =     4000

 ion  position               nearest neighbor table
   1  0.000  0.000  0.000-  23 2.95  24 2.95  23 2.95  24 2.95  25 2.95  43 2.95
   2  0.500  0.500  0.000-  23 2.95  24 2.95  24 2.95  23 2.95  26 2.95  44 2.95
   3  0.000  0.500  0.062-  25 2.95  26 2.95  25 2.95  26 2.95  23 2.95  27 2.95
   4  0.500  0.000  0.062-  25 2.95  26 2.95  26 2.95  25 2.95  24 2.95  28 2.95
   5  0.000  0.000  0.125-  27 2.95  28 2.95  27 2.95  28 2.95  25 2.95  29 2.95
   6  0.500  0.500  0.125-  27 2.95  28 2.95  28 2.95  27 2.95  26 2.95  30 2.95
   7  0.000  0.500  0.188-  29 2.95  30 2.95  29 2.95  30 2.95  27 2.95  31 2.95
   8  0.500  0.000  0.188-  29 2.95  30 2.95  30 2.95  29 2.95  28 2.95  32 2.95
   9  0.000  0.000  0.250-  31 2.95  32 2.95  31 2.95  32 2.95  29 2.95  33 2.95
  10  0.500  0.500  0.250-  31 2.95  32 2.95  32 2.95  31 2.95  30 2.95  34 2.95
  11  0.000  0.500  0.312-  33 2.95  34 2.95  33 2.95  34 2.95  31 2.95
  12  0.500  0.000  0.312-  33 2.95  34 2.95  34 2.95  33 2.95  32 2.95
  13  0.000  0.500  0.688-  35 2.95  36 2.95  35 2.95  36 2.95  37 2.95
  14  0.500  0.000  0.688-  35 2.95  36 2.95  36 2.95  35 2.95  38 2.95
  15  0.000  0.000  0.750-  37 2.95  38 2.95  37 2.95  38 2.95  35 2.95  39 2.95
  16  0.500  0.500  0.750-  37 2.95  38 2.95  38 2.95  37 2.95  36 2.95  40 2.95
  17  0.000  0.500  0.812-  39 2.95  40 2.95  39 2.95  40 2.95  37 2.95  41 2.95
  18  0.500  0.000  0.812-  39 2.95  40 2.95  40 2.95  39 2.95  38 2.95  42 2.95
  19  0.000  0.000  0.875-  41 2.95  42 2.95  41 2.95  42 2.95  39 2.95  43 2.95
  20  0.500  0.500  0.875-  41 2.95  42 2.95  42 2.95  41 2.95  40 2.95  44 2.95
  21  0.000  0.500  0.938-  43 2.95  44 2.95  43 2.95  44 2.95  23 2.95  41 2.95
  22  0.500  0.000  0.938-  43 2.95  44 2.95  44 2.95  43 2.95  24 2.95  42 2.95
  23  0.000  0.500  0.000-   1 2.95   2 2.95   1 2.95   2 2.95   3 2.95  21 2.95
  24  0.500  0.000  0.000-   1 2.95   2 2.95   2 2.95   1 2.95   4 2.95  22 2.95
  25  0.000  0.000  0.062-   3 2.95   4 2.95   3 2.95   4 2.95   1 2.95   5 2.95
  26  0.500  0.500  0.062-   3 2.95   4 2.95   4 2.95   3 2.95   2 2.95   6 2.95
  27  0.000  0.500  0.125-   5 2.95   6 2.95   5 2.95   6 2.95   3 2.95   7 2.95
  28  0.500  0.000  0.125-   5 2.95   6 2.95   6 2.95   5 2.95   4 2.95   8 2.95
  29  0.000  0.000  0.188-   7 2.95   8 2.95   7 2.95   8 2.95   5 2.95   9 2.95
  30  0.500  0.500  0.188-   7 2.95   8 2.95   8 2.95   7 2.95   6 2.95  10 2.95
  31  0.000  0.500  0.250-   9 2.95  10 2.95   9 2.95  10 2.95   7 2.95  11 2.95
  32  0.500  0.000  0.250-   9 2.95  10 2.95  10 2.95   9 2.95   8 2.95  12 2.95
  33  0.000  0.000  0.312-  11 2.95  12 2.95  11 2.95  12 2.95   9 2.95
  34  0.500  0.500  0.312-  11 2.95  12 2.95  12 2.95  11 2.95  10 2.95
  35  0.000  0.000  0.688-  13 2.95  14 2.95  13 2.95  14 2.95  15 2.95
  36  0.500  0.500  0.688-  13 2.95  14 2.95  14 2.95  13 2.95  16 2.95
  37  0.000  0.500  0.750-  15 2.95  16 2.95  15 2.95  16 2.95  13 2.95  17 2.95
  38  0.500  0.000  0.750-  15 2.95  16 2.95  16 2.95  15 2.95  14 2.95  18 2.95
  39  0.000  0.000  0.812-  17 2.95  18 2.95  17 2.95  18 2.95  15 2.95  19 2.95
  40  0.500  0.500  0.812-  17 2.95  18 2.95  18 2.95  17 2.95  16 2.95  20 2.95
  41  0.000  0.500  0.875-  19 2.95  20 2.95  19 2.95  20 2.95  17 2.95  21 2.95
  42  0.500  0.000  0.875-  19 2.95  20 2.95  20 2.95  19 2.95  18 2.95  22 2.95
  43  0.000  0.000  0.938-  21 2.95  22 2.95  21 2.95  22 2.95   1 2.95  19 2.95
  44  0.500  0.500  0.938-  21 2.95  22 2.95  22 2.95  21 2.95   2 2.95  20 2.95

IMPORTANT INFORMATION: All symmetrisations will be switched off!
NOSYMM: (Re-)initialisation of all symmetry stuff for point group C_1.

Automatic generation of k-mesh.
 generate k-points for:    5    5    1
Space group operators:
 irot       det(A)        alpha          n_x          n_y          n_z        tau_x        tau_y        tau_z
    1     1.000000     0.000000     1.000000     0.000000     0.000000     0.000000     0.000000     0.000000

 Subroutine IBZKPT returns following result:

 Found     13 irreducible k-points:

 Following reciprocal coordinates:
            Coordinates               Weight
  0.000000  0.000000  0.000000      1.000000
  0.200000  0.000000  0.000000      2.000000
  0.400000  0.000000  0.000000      2.000000
  0.000000  0.200000  0.000000      2.000000
  0.200000  0.200000  0.000000      2.000000
  0.400000  0.200000  0.000000      2.000000
 -0.400000  0.200000  0.000000      2.000000
 -0.200000  0.200000  0.000000      2.000000
  0.000000  0.400000  0.000000      2.000000
  0.200000  0.400000  0.000000      2.000000
  0.400000  0.400000  0.000000      2.000000
 -0.400000  0.400000  0.000000      2.000000
 -0.200000  0.400000  0.000000      2.000000

 Following cartesian coordinates:
            Coordinates               Weight
  0.000000  0.000000  0.000000      1.000000
  0.033897  0.000000  0.000000      2.000000
  0.067794  0.000000  0.000000      2.000000
  0.000000  0.033897  0.000000      2.000000
  0.033897  0.033897  0.000000      2.000000
  0.067794  0.033897  0.000000      2.000000
 -0.067794  0.033897  0.000000      2.000000
 -0.033897  0.033897  0.000000      2.000000
  0.000000  0.067794  0.000000      2.000000
  0.033897  0.067794  0.000000      2.000000
  0.067794  0.067794  0.000000      2.000000
 -0.067794  0.067794  0.000000      2.000000
 -0.033897  0.067794  0.000000      2.000000

 TETIRR: Found     72 inequivalent tetrahedra from      150

 I would recommend the setting:
   dimension x,y,z NGX =    43 NGY =   43 NGZ =  344
 SYSTEM =  unknown system
 POSCAR =  PbS_rc_conven

 Startparameter for this run:
   NWRITE =      2    write-flag & timer
   PREC   = accura    normal or accurate (medium, high low for compatibility)
   ISTART =      0    job   : 0-new  1-cont  2-samecut
   ICHARG =      2    charge: 1-file 2-atom 10-const
   ISPIN  =      1    spin polarized calculation?
   LNONCOLLINEAR =      F non collinear calculations
   LSORBIT =      F    spin-orbit coupling
   INIWAV =      1    electr: 0-lowe 1-rand  2-diag
   LASPH  =      F    aspherical Exc in radial PAW
   METAGGA=      F    non-selfconsistent MetaGGA calc.

 Electronic Relaxation 1
   ENCUT  =  500.0 eV  36.75 Ry    6.06 a.u.  10.76 10.76 86.06*2*pi/ulx,y,z
   ENINI  =  500.0     initial cutoff
   ENAUG  =  391.9 eV  augmentation charge cutoff
   NELM   =    200;   NELMIN=  4; NELMDL= -5     # of ELM steps
   EDIFF  = 0.1E-05   stopping-criterion for ELM
   LREAL  =      F    real-space projection
   NLSPLINE    = F    spline interpolate recip. space projectors
   LCOMPAT=      F    compatible to vasp.4.4
   GGA_COMPAT  = T    GGA compatible to vasp.4.4-vasp.4.6
   LMAXPAW     = -100 max onsite density
   LMAXMIX     =    2 max onsite mixed and CHGCAR
   VOSKOWN=      0    Vosko Wilk Nusair interpolation
   ROPT   =    0.00000   0.00000
 Ionic relaxation
   EDIFFG = -.1E-02   stopping-criterion for IOM
   NSW    =      0    number of steps for IOM
   NBLOCK =      1;   KBLOCK =      1    inner block; outer block
   IBRION =     -1    ionic relax: 0-MD 1-quasi-New 2-CG
   NFREE  =      0    steps in history (QN), initial steepest desc. (CG)
   ISIF   =      2    stress and relaxation
   IWAVPR =     10    prediction:  0-non 1-charg 2-wave 3-comb
   ISYM   =      0    0-nonsym 1-usesym 2-fastsym
   LCORR  =      T    Harris-Foulkes like correction to forces

   POTIM  = 0.5000    time-step for ionic-motion
   TEIN   =    0.0    initial temperature
   TEBEG  =    0.0;   TEEND  =   0.0 temperature during run
   SMASS  =  -3.00    Nose mass-parameter (am)
   estimated Nose-frequenzy (Omega)   =  0.10E-29 period in steps =****** mass=  -0.796E-27a.u.
   SCALEE = 1.0000    scale energy and forces
   NPACO  =    256;   APACO  = 16.0  distance and # of slots for P.C.
   PSTRESS=    0.0 pullay stress

  Mass of Ions in am
   POMASS = 207.20 32.07
  Ionic Valenz
   ZVAL   =  14.00  6.00
  Atomic Wigner-Seitz radii
  virtual crystal weights
   VCA    =   1.00  1.00
   NELECT =     440.0000    total number of electrons
   NUPDOWN=      -1.0000    fix difference up-down

 DOS related values:
   EMIN   =  10.00;   EMAX   =-10.00  energy-range for DOS
   EFERMI =   0.00
   ISMEAR =    -5;   SIGMA  =   0.01  broadening in eV -4-tet -1-fermi 0-gaus

 Electronic relaxation 2 (details)
   IALGO  =     38    algorithm
   LDIAG  =      T    sub-space diagonalisation (order eigenvalues)
   LSUBROT=      F    optimize rotation matrix (better conditioning)
   TURBO    =      0    0=normal 1=particle mesh
   IRESTART =      0    0=no restart 2=restart with 2 vectors
   NREBOOT  =      0    no. of reboots
   NMIN     =      0    reboot dimension
   EREF     =   0.00    reference energy to select bands
   IMIX   =      4    mixing-type and parameters
     AMIX     =   0.40;   BMIX     =  1.00
     AMIX_MAG =   1.60;   BMIX_MAG =  1.00
     AMIN     =   0.10
     WC   =   100.;   INIMIX=   1;  MIXPRE=   1;  MAXMIX= -45

 Intra band minimization:
   WEIMIN = 0.0000     energy-eigenvalue tresh-hold
   EBREAK =  0.95E-09  absolut break condition
   DEPER  =   0.30     relativ break condition

   TIME   =   0.40     timestep for ELM

  volume/ion in A,a.u.               =      37.35       252.03
  Fermi-wavevector in a.u.,A,eV,Ry     =   1.055175  1.993992 15.148655  1.113395
  Thomas-Fermi vector in A             =   2.190363

 Write flags
   LWAVE  =      F    write WAVECAR
   LCHARG =      T    write CHGCAR
   LVTOT  =      F    write LOCPOT, total local potential
   LVHAR  =      T    write LOCPOT, Hartree potential only
   LELF   =      F    write electronic localiz. function (ELF)
   LORBIT =     10    0 simple, 1 ext, 2 COOP (PROOUT)

 Dipole corrections
   LMONO  =      F    monopole corrections only (constant potential shift)
   LDIPOL =      F    correct potential (dipole corrections)
   IDIPOL =      0    1-x, 2-y, 3-z, 4-all directions
   EPSILON=  1.0000000 bulk dielectric constant

 Core level calculations are selected ICORELEVEL =  1
 Exchange correlation treatment:
   GGA     =    PS    GGA type
   VOSKOWN=      0    Vosko Wilk Nusair interpolation
   LHFCALC =     F    Hartree Fock is set to
   LHFONE  =     F    Hartree Fock one center treatment
   AEXX    =    0.0000 exact exchange contribution

 Linear response parameters
[...]
     47     -14.0599      2.00000
     48     -14.0581      2.00000
     49     -14.0575      2.00000
     50     -14.0556      2.00000
     51     -14.0552      2.00000
     52     -14.0550      2.00000
     53     -14.0544      2.00000
     54     -14.0537      2.00000
     55     -14.0535      2.00000
     56     -14.0529      2.00000
     57     -14.0492      2.00000
     58     -14.0487      2.00000
     59     -14.0450      2.00000
     60     -14.0414      2.00000
[...]
    250       5.5784      0.00000
    251       5.6361      0.00000
    252       5.7873      0.00000
    253       5.8796      0.00000
    254       6.0865      0.00000
    255       6.1209      0.00000
    256       6.1715      0.00000
    257       6.2053      0.00000
    258       6.2375      0.00000
    259       6.3016      0.00000
    260       6.3405      0.00000
    261       6.3676      0.00000
    262       6.3908      0.00000
    263       6.4450      0.00000
    264       6.4831      0.00000

 soft charge-density along one line, spin component           1
         0         1         2         3         4         5         6         7         8         9
 total charge-density along one line

------------------------ aborting loop because EDIFF is reached ----------------------------------------

 total charge

# of ion     s       p       d       tot
  1        1.474   0.522   9.845  11.841
  2        1.474   0.522   9.845  11.841
  3        1.473   0.522   9.845  11.841
  4        1.473   0.522   9.845  11.841
  5        1.474   0.522   9.845  11.842
  6        1.474   0.522   9.845  11.842
  7        1.472   0.521   9.845  11.838
  8        1.472   0.521   9.845  11.838
  9        1.476   0.521   9.846  11.844
 10        1.476   0.521   9.846  11.844
 11        1.463   0.508   9.839  11.809
 12        1.463   0.508   9.839  11.809
 13        1.463   0.508   9.839  11.809
 14        1.463   0.508   9.839  11.809
 15        1.476   0.521   9.846  11.844
 16        1.476   0.521   9.846  11.844
 17        1.472   0.521   9.845  11.838
 18        1.472   0.521   9.845  11.838
 19        1.474   0.522   9.845  11.842
 20        1.474   0.522   9.845  11.842
 21        1.473   0.522   9.845  11.841
 22        1.473   0.522   9.845  11.841
 23        1.347   2.313   0.000   3.660
 24        1.347   2.313   0.000   3.660
 25        1.347   2.313   0.000   3.660
 26        1.347   2.313   0.000   3.660
 27        1.346   2.313   0.000   3.660
 28        1.346   2.313   0.000   3.660
 29        1.348   2.313   0.000   3.661
 30        1.348   2.313   0.000   3.661
 31        1.344   2.312   0.000   3.656
 32        1.344   2.312   0.000   3.656
 33        1.347   2.302   0.000   3.649
 34        1.347   2.302   0.000   3.649
 35        1.347   2.302   0.000   3.649
 36        1.347   2.302   0.000   3.649
 37        1.344   2.312   0.000   3.656
 38        1.344   2.312   0.000   3.656
 39        1.348   2.313   0.000   3.661
 40        1.348   2.313   0.000   3.661
 41        1.346   2.313   0.000   3.660
 42        1.346   2.313   0.000   3.660
 43        1.347   2.313   0.000   3.660
 44        1.347   2.313   0.000   3.660
tot       62.000  62.263 216.572 340.836

  FORCE on cell =-STRESS in cart. coord.  units (eV):
  Direction    XX          YY          ZZ          XY          YZ          ZX
  Alpha Z   838.54743   838.54743   838.54743
  Ewald  185641.41678185641.41678************     0.00000     0.00000     0.00000
  Hartree198312.75561198312.75561************     0.00000    -0.00000    -0.00000
  E(xc)   -1905.21712 -1905.21712 -1906.24338     0.00000     0.00000     0.00000
  Local  ************************390513.25156    -0.00000     0.00000     0.00000
  n-local  3075.89640  3075.89640  3067.37959     0.00000     0.00000    -0.00000
  augment  2307.51395  2307.51395  2304.65019    -0.00000     0.00000     0.00000
  Kinetic  4897.63962  4897.63962  4898.67488     0.00000    -0.00000    -0.00000
  Fock        0.00000     0.00000     0.00000     0.00000     0.00000     0.00000
  Total      -3.30194    -3.30194    -6.07175    -0.00000    -0.00000    -0.00000
  in kB      -3.21941    -3.21941    -5.91999    -0.00000    -0.00000    -0.00000

 VOLUME and BASIS-vectors are now :
  energy-cutoff  :      500.00
  volume of cell :     1643.25
      direct lattice vectors                 reciprocal lattice vectors
     5.900259972  0.000000000  0.000000000     0.169484057  0.000000000  0.000000000
     0.000000000  5.900259972  0.000000000     0.000000000  0.169484057  0.000000000
     0.000000000  0.000000000 47.202079773     0.000000000  0.000000000  0.021185507

  length of vectors
     5.900259972  5.900259972 47.202079773     0.169484057  0.169484057  0.021185507

 FORCES acting on ions
    electron-ion (+dipol)            ewald-force                    non-local-force                 convergence-correction
   -.317E-06 0.253E-06 -.346E-05   0.775E-15 -.202E-13 0.739E-12   -.283E-06 0.441E-06 0.530E-06   0.709E-06 -.785E-06 0.297E-05
   -.425E-07 -.290E-06 -.290E-05   0.336E-14 -.101E-13 -.625E-12   -.267E-06 -.118E-06 0.115E-06   0.229E-06 0.490E-06 0.280E-05
   -.493E-06 -.566E-06 -.910E+03   -.146E-14 -.260E-14 0.910E+03   0.413E-06 0.170E-07 -.235E-01   0.166E-06 0.564E-06 -.352E-04
   0.399E-06 0.179E-07 -.910E+03   0.113E-14 0.756E-14 0.910E+03   0.280E-06 0.164E-06 -.235E-01   -.751E-06 -.209E-06 -.384E-04
   -.668E-06 -.427E-06 -.182E+04   -.296E-14 -.256E-14 0.182E+04   0.307E-06 0.302E-07 0.937E-01   0.230E-06 0.392E-06 -.299E-04
   0.202E-06 0.410E-06 -.182E+04   -.379E-15 0.760E-14 0.182E+04   -.144E-07 0.127E-07 0.937E-01   -.120E-06 -.503E-06 -.301E-04
   0.735E-07 0.174E-06 -.273E+04   -.357E-14 -.312E-14 0.273E+04   -.451E-07 -.386E-08 -.346E+00   -.264E-07 -.982E-08 0.185E-04
   0.317E-06 0.231E-06 -.273E+04   -.986E-15 0.704E-14 0.273E+04   -.435E-06 -.439E-06 -.346E+00   0.136E-06 0.521E-07 0.216E-04
   -.373E-06 0.400E-06 -.364E+04   -.453E-14 -.299E-14 0.364E+04   -.658E-08 0.162E-06 0.990E+00   0.388E-06 -.652E-06 0.369E-04
   0.146E-05 -.766E-06 -.364E+04   -.195E-14 0.716E-14 0.364E+04   -.679E-06 0.116E-06 0.990E+00   -.748E-06 0.766E-06 0.389E-04
   -.156E-06 0.234E-06 -.453E+04   -.904E-14 0.677E-14 0.453E+04   0.136E-08 0.118E-07 -.543E+01   0.144E-06 -.145E-06 0.701E-04
   -.540E-06 0.985E-07 -.453E+04   -.646E-14 0.169E-13 0.453E+04   0.300E-06 -.257E-06 -.543E+01   0.664E-07 0.101E-06 0.706E-04
   -.400E-06 -.422E-06 0.453E+04   -.502E-14 -.104E-13 -.453E+04   -.229E-06 -.556E-06 0.543E+01   0.705E-06 0.996E-06 -.742E-04
   0.328E-07 0.356E-07 0.453E+04   -.244E-14 -.200E-15 -.453E+04   0.428E-07 0.144E-06 0.543E+01   -.139E-06 -.163E-06 -.755E-04
   -.224E-06 0.448E-06 0.364E+04   -.278E-14 -.250E-14 -.364E+04   -.150E-06 0.296E-06 -.990E+00   0.330E-06 -.918E-06 -.359E-04
   0.906E-07 -.400E-07 0.364E+04   -.196E-15 0.766E-14 -.364E+04   0.322E-06 -.115E-06 -.990E+00   -.514E-06 0.215E-06 -.353E-04
   -.523E-08 0.113E-06 0.273E+04   -.363E-14 -.313E-14 -.273E+04   0.516E-07 -.137E-06 0.346E+00   -.503E-07 -.801E-07 -.255E-04
   0.426E-06 -.299E-06 0.273E+04   -.105E-14 0.702E-14 -.273E+04   0.138E-07 -.477E-06 0.346E+00   -.468E-06 0.857E-06 -.251E-04
   0.137E-06 0.180E-06 0.182E+04   -.517E-14 -.362E-14 -.182E+04   -.202E-06 -.186E-06 -.937E-01   0.141E-06 0.192E-07 0.231E-04
   -.923E-08 -.458E-07 0.182E+04   -.259E-14 0.653E-14 -.182E+04   -.295E-06 0.166E-06 -.937E-01   0.290E-06 -.981E-07 0.239E-04
   -.878E-06 -.265E-06 0.910E+03   -.733E-14 0.140E-13 -.910E+03   0.192E-06 -.133E-07 0.235E-01   0.532E-06 0.335E-06 0.396E-04
   0.602E-06 0.430E-06 0.910E+03   -.475E-14 0.242E-13 -.910E+03   0.586E-06 0.274E-06 0.235E-01   -.119E-05 -.758E-06 0.396E-04
   0.214E-06 -.324E-06 -.909E-06   0.111E-13 -.299E-14 -.142E-13   -.137E-06 0.172E-06 -.737E-07   -.998E-07 0.279E-06 0.883E-06
   0.622E-06 0.363E-06 -.122E-05   0.403E-14 -.390E-15 0.142E-13   -.286E-06 -.140E-06 0.182E-06   -.443E-06 -.287E-06 0.948E-06
   -.314E-06 -.293E-07 -.390E+03   0.950E-14 -.120E-14 0.390E+03   0.160E-06 -.166E-07 -.240E-01   0.331E-06 -.104E-06 -.120E-04
   0.173E-06 -.668E-07 -.390E+03   0.240E-14 0.140E-14 0.390E+03   -.765E-07 -.822E-08 -.240E-01   -.150E-06 0.181E-06 -.121E-04
   -.264E-06 0.184E-06 -.780E+03   0.808E-14 -.676E-15 0.780E+03   0.125E-06 -.557E-07 0.105E+00   0.187E-06 -.177E-06 -.512E-05
   0.167E-06 -.299E-06 -.780E+03   0.976E-15 0.193E-14 0.780E+03   -.833E-07 0.177E-06 0.105E+00   -.467E-07 0.241E-06 -.516E-05
   0.498E-07 0.777E-07 -.117E+04   0.837E-14 -.108E-14 0.117E+04   0.149E-07 -.696E-07 -.297E+00   0.282E-07 -.132E-06 0.150E-04
   -.232E-06 0.120E-06 -.117E+04   0.126E-14 0.152E-14 0.117E+04   0.175E-06 0.527E-08 -.297E+00   0.805E-07 0.436E-07 0.155E-04
   -.182E-07 0.581E-07 -.156E+04   0.785E-14 -.909E-15 0.156E+04   0.755E-07 -.139E-06 0.120E+01   0.231E-06 0.915E-07 0.156E-04
   0.159E-06 0.516E-06 -.156E+04   0.745E-15 0.170E-14 0.156E+04   -.296E-07 -.260E-06 0.120E+01   -.248E-06 -.491E-06 0.166E-04
   0.273E-06 0.102E-06 -.196E+04   0.104E-13 -.962E-15 0.197E+04   -.138E-06 -.625E-07 -.175E+01   -.983E-07 -.878E-07 0.184E-04
   0.183E-06 0.178E-06 -.196E+04   0.331E-14 0.164E-14 0.197E+04   -.309E-06 -.196E-07 -.175E+01   -.204E-06 -.531E-07 0.180E-04
   -.435E-06 0.531E-06 0.196E+04   0.134E-13 -.320E-14 -.197E+04   0.331E-06 -.109E-06 0.175E+01   0.342E-06 -.481E-06 -.175E-04
   0.242E-06 0.151E-07 0.196E+04   0.628E-14 -.593E-15 -.197E+04   -.525E-07 -.177E-06 0.175E+01   -.175E-06 -.890E-07 -.175E-04
   -.120E-06 -.538E-06 0.156E+04   0.920E-14 -.133E-14 -.156E+04   -.562E-07 0.277E-06 -.120E+01   0.130E-06 0.497E-06 -.153E-04
   0.937E-07 0.785E-07 0.156E+04   0.210E-14 0.128E-14 -.156E+04   0.118E-06 0.434E-07 -.120E+01   -.103E-06 -.108E-06 -.147E-04
   -.173E-06 -.188E-06 0.117E+04   0.838E-14 -.105E-14 -.117E+04   0.989E-07 0.635E-07 0.297E+00   0.286E-06 0.137E-06 -.167E-04
   -.932E-07 0.391E-06 0.117E+04   0.128E-14 0.155E-14 -.117E+04   0.121E-06 -.210E-06 0.297E+00   -.389E-07 -.269E-06 -.168E-04
   -.263E-06 -.292E-06 0.780E+03   0.689E-14 -.325E-15 -.780E+03   0.196E-06 0.131E-06 -.105E+00   0.222E-07 0.140E-06 0.331E-05
   -.221E-06 0.874E-07 0.780E+03   -.211E-15 0.228E-14 -.780E+03   0.145E-06 -.770E-07 -.105E+00   0.796E-07 -.446E-07 0.339E-05
   -.348E-06 0.618E-07 0.390E+03   0.520E-14 0.148E-14 -.390E+03   0.915E-07 0.214E-07 0.240E-01   0.388E-06 -.850E-07 0.128E-04
   0.113E-06 -.187E-06 0.390E+03   -.191E-14 0.408E-14 -.390E+03   -.480E-07 0.505E-07 0.240E-01   -.210E-06 0.201E-06 0.128E-04
   -.557E-06 0.743E-06 0.991E-05   0.577E-13 0.552E-13 -.455E-11   0.338E-06 -.870E-06 0.703E-06   0.346E-06 -.130E-06 -.162E-04

 POSITION                                       TOTAL-FORCE (eV/Angst)
      0.00000      0.00000      0.00000         0.000000     -0.000000      0.000000
      2.95013      2.95013      0.00000        -0.000000      0.000000      0.000000
      0.00000      2.95013      2.95013         0.000000      0.000000     -0.002890
      2.95013      0.00000      2.95013        -0.000000     -0.000000     -0.002890
      0.00000      0.00000      5.90026        -0.000000      0.000000      0.023510
      2.95013      2.95013      5.90026         0.000000     -0.000000      0.023510
      0.00000      2.95013      8.85039        -0.000000      0.000000     -0.045146
      2.95013      0.00000      8.85039         0.000000     -0.000000     -0.045146
      0.00000      0.00000     11.80052         0.000000     -0.000000      0.363227
      2.95013      2.95013     11.80052         0.000000      0.000000      0.363227
      0.00000      2.95013     14.75065        -0.000000      0.000000     -0.356652
      2.95013      0.00000     14.75065        -0.000000     -0.000000     -0.356653
      0.00000      2.95013     32.45143         0.000000      0.000000      0.356649
      2.95013      0.00000     32.45143        -0.000000      0.000000      0.356650
      0.00000      0.00000     35.40156        -0.000000     -0.000000     -0.363226
      2.95013      2.95013     35.40156        -0.000000      0.000000     -0.363227
      0.00000      2.95013     38.35169        -0.000000     -0.000000      0.045146
      2.95013      0.00000     38.35169        -0.000000      0.000000      0.045146
      0.00000      0.00000     41.30182         0.000000      0.000000     -0.023510
      2.95013      2.95013     41.30182        -0.000000      0.000000     -0.023510
      0.00000      2.95013     44.25195        -0.000000      0.000000      0.002890
      2.95013      0.00000     44.25195        -0.000000     -0.000000      0.002890
      0.00000      2.95013      0.00000        -0.000000      0.000000      0.000000
      2.95013      0.00000      0.00000        -0.000000     -0.000000      0.000000
      0.00000      0.00000      2.95013         0.000000     -0.000000     -0.004426
      2.95013      2.95013      2.95013        -0.000000      0.000000     -0.004426
      0.00000      2.95013      5.90026         0.000000     -0.000000      0.019272
      2.95013      0.00000      5.90026         0.000000      0.000000      0.019272
      0.00000      0.00000      8.85039         0.000000     -0.000000     -0.086790
      2.95013      2.95013      8.85039         0.000000      0.000000     -0.086789
      0.00000      2.95013     11.80052         0.000000      0.000000      0.361704
      2.95013      0.00000     11.80052        -0.000000     -0.000000      0.361705
      0.00000      0.00000     14.75065         0.000000     -0.000000     -0.253676
      2.95013      2.95013     14.75065        -0.000000      0.000000     -0.253676
      0.00000      0.00000     32.45143         0.000000     -0.000000      0.253677
      2.95013      2.95013     32.45143         0.000000     -0.000000      0.253676
      0.00000      2.95013     35.40156        -0.000000      0.000000     -0.361704
      2.95013      0.00000     35.40156         0.000000      0.000000     -0.361704
      0.00000      0.00000     38.35169         0.000000      0.000000      0.086790
      2.95013      2.95013     38.35169        -0.000000     -0.000000      0.086790
      0.00000      2.95013     41.30182        -0.000000     -0.000000     -0.019272
      2.95013      0.00000     41.30182         0.000000     -0.000000     -0.019272
      0.00000      0.00000     44.25195         0.000000      0.000000      0.004426
      2.95013      2.95013     44.25195        -0.000000      0.000000      0.004426
    total drift:                                0.000000     -0.000000     -0.000006

  FREE ENERGIE OF THE ION-ELECTRON SYSTEM (eV)
  free  energy   TOTEN  =      -206.71352165 eV

  energy  without entropy=     -206.71352165  energy(sigma->0) =     -206.71352165

 total charge

# of ion     s       p       d       tot
  1        1.474   0.522   9.845  11.841
  2        1.474   0.522   9.845  11.841
  3        1.473   0.522   9.845  11.841
  4        1.473   0.522   9.845  11.841
  5        1.474   0.522   9.845  11.842
  6        1.474   0.522   9.845  11.842
  7        1.472   0.521   9.845  11.838
  8        1.472   0.521   9.845  11.838
  9        1.476   0.521   9.846  11.844
 10        1.476   0.521   9.846  11.844
 11        1.463   0.508   9.839  11.809
 12        1.463   0.508   9.839  11.809
 13        1.463   0.508   9.839  11.809
 14        1.463   0.508   9.839  11.809
 15        1.476   0.521   9.846  11.844
 16        1.476   0.521   9.846  11.844
 17        1.472   0.521   9.845  11.838
 18        1.472   0.521   9.845  11.838
 19        1.474   0.522   9.845  11.842
 20        1.474   0.522   9.845  11.842
 21        1.473   0.522   9.845  11.841
 22        1.473   0.522   9.845  11.841
 23        1.347   2.313   0.000   3.660
 24        1.347   2.313   0.000   3.660
 25        1.347   2.313   0.000   3.660
 26        1.347   2.313   0.000   3.660
 27        1.346   2.313   0.000   3.660
 28        1.346   2.313   0.000   3.660
 29        1.348   2.313   0.000   3.661
 30        1.348   2.313   0.000   3.661
 31        1.344   2.312   0.000   3.656
 32        1.344   2.312   0.000   3.656
 33        1.347   2.302   0.000   3.649
 34        1.347   2.302   0.000   3.649
 35        1.347   2.302   0.000   3.649
 36        1.347   2.302   0.000   3.649
 37        1.344   2.312   0.000   3.656
 38        1.344   2.312   0.000   3.656
 39        1.348   2.313   0.000   3.661
 40        1.348   2.313   0.000   3.661
 41        1.346   2.313   0.000   3.660
 42        1.346   2.313   0.000   3.660
 43        1.347   2.313   0.000   3.660
 44        1.347   2.313   0.000   3.660
tot       62.000  62.263 216.572 340.836

 BZINTS: Fermi energy:  2.448908;440.000000 electrons
         Band energy:***********;  BLOECHL correction:  0.000000